
Gurobi 12.0.1 (win64) logging started Fri Nov 21 17:42:07 2025

Set parameter LogFile to value "data\dblrp\grb_log_ef_s100_ts0_f5_c10_r2.0_iss1_bt1_nsp1000_nse2_sd7.log"
Set parameter NodefileStart to value 0.5
Set parameter NodefileDir to value "node_files\s100_ts0"
Set parameter MIPGap to value 0.0001
Set parameter TimeLimit to value 3600
Set parameter Threads to value 1
Gurobi Optimizer version 12.0.1 build v12.0.1rc0 (win64 - Windows 11.0 (26100.2))

CPU model: Intel(R) Core(TM) i9-14900K, instruction set [SSE2|AVX|AVX2]
Thread count: 24 physical cores, 32 logical processors, using up to 1 threads

Non-default parameters:
TimeLimit  3600
NodefileStart  0.5
Threads  1

Optimize a model with 42582000 rows, 14247505 columns and 117375000 nonzeros
Model fingerprint: 0x90591448
Variable types: 0 continuous, 14247505 integer (14175005 binary)
Coefficient statistics:
  Matrix range     [1e+00, 7e+01]
  Objective range  [1e-01, 1e+01]
  Bounds range     [1e+00, 4e+01]
  RHS range        [1e+00, 7e+01]
Presolve removed 787500 rows and 0 columns (presolve time = 5s)...
Presolve removed 42237371 rows and 21000 columns (presolve time = 11s)...
Presolve removed 42401863 rows and 14030795 columns (presolve time = 15s)...
Presolve removed 42529785 rows and 14146492 columns
Presolve time: 16.74s
Presolved: 52215 rows, 101013 columns, 450487 nonzeros
Variable types: 0 continuous, 101013 integer (78072 binary)
Found heuristic solution: objective -50.0000000
Found heuristic solution: objective -40.7246107
Performing another presolve...
Presolve removed 39740 rows and 53586 columns
Presolve time: 2.51s
Found heuristic solution: objective -40.0013102

Root simplex log...

Iteration    Objective       Primal Inf.    Dual Inf.      Time
       0    8.9627812e+02   2.230825e+04   0.000000e+00     32s
    5128    7.4198973e+01   0.000000e+00   0.000000e+00     32s
    5129    7.4198973e+01   0.000000e+00   0.000000e+00     32s
Extra simplex iterations after uncrush: 1

Root relaxation: objective 7.419897e+01, 5129 iterations, 0.23 seconds (0.16 work units)
Total elapsed time = 32.28s (DegenMoves)

    Nodes    |    Current Node    |     Objective Bounds      |     Work
 Expl Unexpl |  Obj  Depth IntInf | Incumbent    BestBd   Gap | It/Node Time

     0     0   74.19897    0 2217  -40.00131   74.19897   285%     -   32s
     0     0   71.44628    0 2457  -40.00131   71.44628   279%     -   32s
     0     0   69.68734    0  747  -40.00131   69.68734   274%     -   32s
     0     0   69.65223    0  739  -40.00131   69.65223   274%     -   32s
     0     0   69.63050    0  735  -40.00131   69.63050   274%     -   32s
H    0     0                     -10.0013102   69.63050   796%     -   33s
H    0     0                      54.1484341   69.63050  28.6%     -   34s
H    0     0                      57.1106665   69.63050  21.9%     -   34s
H    0     0                      60.6260077   69.63050  14.9%     -   35s
H    0     0                      64.2715404   69.63050  8.34%     -   35s
H    0     0                      64.3159823   69.63050  8.26%     -   36s
     0     0   66.52064    0  467   64.31598   66.52064  3.43%     -   36s
     0     0   66.46693    0  446   64.31598   66.46693  3.34%     -   36s
     0     0   66.43639    0  438   64.31598   66.43639  3.30%     -   36s
H    0     0                      64.6002083   66.43394  2.84%     -   37s
     0     0   66.04572    0  389   64.60021   66.04572  2.24%     -   37s
     0     0   65.19210    0  104   64.60021   65.19210  0.92%     -   37s
     0     0   65.18474    0   86   64.60021   65.18474  0.90%     -   37s
     0     0   65.18279    0   81   64.60021   65.18279  0.90%     -   37s
     0     0   65.02067    0   43   64.60021   65.02067  0.65%     -   37s
     0     0   65.02067    0   45   64.60021   65.02067  0.65%     -   37s
H    0     0                      64.8691635   64.98894  0.18%     -   38s
     0     0   64.98894    0   46   64.86916   64.98894  0.18%     -   38s
     0     0   64.93775    0   33   64.86916   64.93775  0.11%     -   38s
     0     0   64.93775    0   12   64.86916   64.93775  0.11%     -   40s
     0     0   64.93775    0   11   64.86916   64.93775  0.11%     -   40s
     0     0   64.93010    0    9   64.86916   64.93010  0.09%     -   40s
     0     0   64.92380    0   13   64.86916   64.92380  0.08%     -   40s
     0     0   64.91541    0    9   64.86916   64.91541  0.07%     -   40s
     0     0   64.91541    0    9   64.86916   64.91541  0.07%     -   40s
     0     0   64.91541    0    9   64.86916   64.91541  0.07%     -   40s
     0     0   64.91541    0   10   64.86916   64.91541  0.07%     -   40s
     0     0   64.91541    0   11   64.86916   64.91541  0.07%     -   40s
     0     0   64.91541    0   10   64.86916   64.91541  0.07%     -   40s
     0     0   64.91541    0    9   64.86916   64.91541  0.07%     -   40s

Cutting planes:
  Gomory: 2
  Clique: 1
  Zero half: 5

Explored 1 nodes (12415 simplex iterations) in 41.33 seconds (57.46 work units)
Thread count was 1 (of 32 available processors)

Solution count 10: 64.8692 64.8692 64.8692 ... -10.0013

Optimal solution found (tolerance 1.00e-04)
Best objective 6.486916348887e+01, best bound 6.486916348887e+01, gap 0.0000%

User-callback calls 4996, time in user-callback 7.59 sec
